5 5
6 3 4 19 5 15 3 9 5 4 7 1 5 3 6 2 3 5 19 1 4 2 5 4 18 1 7 5 9 3 18 2 12 3 2 8 1 10 5 9 5 1 8 3 5 2 3 5 2 4 10
8 1 1 4 1 1 4 3 4 19 2 15 1 13 1 3 9 2 5 3 1 6 3 5 5 3 18 2 12 1 1 14 3 3 5 4 4 2 2
6 4 2 6 5 13 4 13 3 18 2 4 4 5 10 1 3 8 2 1 15 5 11 2 2 2 1 10 1 3 9
8 5 1 19 2 20 4 16 3 15 5 3 4 5 6 3 7 1 11 4 18 1 1 12 4 3 3 2 5 5 5 4 13 3 2 9 3 9 5 15 3 3 6 2 4 5 5 3 5 20 1 14 3 9 2 3 15 2 11
6 4 5 10 2 4 1 8 4 8 2 3 10 1 11 2 1 7 4 19 4 1 16 3 7 5 6 2 4 2 3 18 5 19 3 1 12 3 10 2 2